p cnf 36 576
c id 1 type at_least_one
1 2 3 4 5 6 0
c id 2 type at_most_one
-1 -2 0
c id 3 type at_most_one
-1 -3 0
c id 4 type at_most_one
-1 -4 0
c id 5 type at_most_one
-1 -5 0
c id 6 type at_most_one
-1 -6 0
c id 7 type at_most_one
-2 -3 0
c id 8 type at_most_one
-2 -4 0
c id 9 type at_most_one
-2 -5 0
c id 10 type at_most_one
-2 -6 0
c id 11 type at_most_one
-3 -4 0
c id 12 type at_most_one
-3 -5 0
c id 13 type at_most_one
-3 -6 0
c id 14 type at_most_one
-4 -5 0
c id 15 type at_most_one
-4 -6 0
c id 16 type at_most_one
-5 -6 0
c id 17 type at_least_one
7 8 9 10 11 12 0
c id 18 type at_most_one
-7 -8 0
c id 19 type at_most_one
-7 -9 0
c id 20 type at_most_one
-7 -10 0
c id 21 type at_most_one
-7 -11 0
c id 22 type at_most_one
-7 -12 0
c id 23 type at_most_one
-8 -9 0
c id 24 type at_most_one
-8 -10 0
c id 25 type at_most_one
-8 -11 0
c id 26 type at_most_one
-8 -12 0
c id 27 type at_most_one
-9 -10 0
c id 28 type at_most_one
-9 -11 0
c id 29 type at_most_one
-9 -12 0
c id 30 type at_most_one
-10 -11 0
c id 31 type at_most_one
-10 -12 0
c id 32 type at_most_one
-11 -12 0
c id 33 type at_least_one
13 14 15 16 17 18 0
c id 34 type at_most_one
-13 -14 0
c id 35 type at_most_one
-13 -15 0
c id 36 type at_most_one
-13 -16 0
c id 37 type at_most_one
-13 -17 0
c id 38 type at_most_one
-13 -18 0
c id 39 type at_most_one
-14 -15 0
c id 40 type at_most_one
-14 -16 0
c id 41 type at_most_one
-14 -17 0
c id 42 type at_most_one
-14 -18 0
c id 43 type at_most_one
-15 -16 0
c id 44 type at_most_one
-15 -17 0
c id 45 type at_most_one
-15 -18 0
c id 46 type at_most_one
-16 -17 0
c id 47 type at_most_one
-16 -18 0
c id 48 type at_most_one
-17 -18 0
c id 49 type at_least_one
19 20 21 22 23 24 0
c id 50 type at_most_one
-19 -20 0
c id 51 type at_most_one
-19 -21 0
c id 52 type at_most_one
-19 -22 0
c id 53 type at_most_one
-19 -23 0
c id 54 type at_most_one
-19 -24 0
c id 55 type at_most_one
-20 -21 0
c id 56 type at_most_one
-20 -22 0
c id 57 type at_most_one
-20 -23 0
c id 58 type at_most_one
-20 -24 0
c id 59 type at_most_one
-21 -22 0
c id 60 type at_most_one
-21 -23 0
c id 61 type at_most_one
-21 -24 0
c id 62 type at_most_one
-22 -23 0
c id 63 type at_most_one
-22 -24 0
c id 64 type at_most_one
-23 -24 0
c id 65 type at_least_one
25 26 27 28 29 30 0
c id 66 type at_most_one
-25 -26 0
c id 67 type at_most_one
-25 -27 0
c id 68 type at_most_one
-25 -28 0
c id 69 type at_most_one
-25 -29 0
c id 70 type at_most_one
-25 -30 0
c id 71 type at_most_one
-26 -27 0
c id 72 type at_most_one
-26 -28 0
c id 73 type at_most_one
-26 -29 0
c id 74 type at_most_one
-26 -30 0
c id 75 type at_most_one
-27 -28 0
c id 76 type at_most_one
-27 -29 0
c id 77 type at_most_one
-27 -30 0
c id 78 type at_most_one
-28 -29 0
c id 79 type at_most_one
-28 -30 0
c id 80 type at_most_one
-29 -30 0
c id 81 type at_least_one
31 32 33 34 35 36 0
c id 82 type at_most_one
-31 -32 0
c id 83 type at_most_one
-31 -33 0
c id 84 type at_most_one
-31 -34 0
c id 85 type at_most_one
-31 -35 0
c id 86 type at_most_one
-31 -36 0
c id 87 type at_most_one
-32 -33 0
c id 88 type at_most_one
-32 -34 0
c id 89 type at_most_one
-32 -35 0
c id 90 type at_most_one
-32 -36 0
c id 91 type at_most_one
-33 -34 0
c id 92 type at_most_one
-33 -35 0
c id 93 type at_most_one
-33 -36 0
c id 94 type at_most_one
-34 -35 0
c id 95 type at_most_one
-34 -36 0
c id 96 type at_most_one
-35 -36 0
c id 97 type mutual_exclusion
-1 -7 0
c id 98 type mutual_exclusion
-1 -13 0
c id 99 type mutual_exclusion
-1 -19 0
c id 100 type mutual_exclusion
-1 -25 0
c id 101 type mutual_exclusion
-1 -31 0
c id 102 type mutual_exclusion
-7 -13 0
c id 103 type mutual_exclusion
-7 -19 0
c id 104 type mutual_exclusion
-7 -25 0
c id 105 type mutual_exclusion
-7 -31 0
c id 106 type mutual_exclusion
-13 -19 0
c id 107 type mutual_exclusion
-13 -25 0
c id 108 type mutual_exclusion
-13 -31 0
c id 109 type mutual_exclusion
-19 -25 0
c id 110 type mutual_exclusion
-19 -31 0
c id 111 type mutual_exclusion
-25 -31 0
c id 112 type mutual_exclusion
-2 -8 0
c id 113 type mutual_exclusion
-2 -14 0
c id 114 type mutual_exclusion
-2 -20 0
c id 115 type mutual_exclusion
-2 -26 0
c id 116 type mutual_exclusion
-2 -32 0
c id 117 type mutual_exclusion
-8 -14 0
c id 118 type mutual_exclusion
-8 -20 0
c id 119 type mutual_exclusion
-8 -26 0
c id 120 type mutual_exclusion
-8 -32 0
c id 121 type mutual_exclusion
-14 -20 0
c id 122 type mutual_exclusion
-14 -26 0
c id 123 type mutual_exclusion
-14 -32 0
c id 124 type mutual_exclusion
-20 -26 0
c id 125 type mutual_exclusion
-20 -32 0
c id 126 type mutual_exclusion
-26 -32 0
c id 127 type mutual_exclusion
-3 -9 0
c id 128 type mutual_exclusion
-3 -15 0
c id 129 type mutual_exclusion
-3 -21 0
c id 130 type mutual_exclusion
-3 -27 0
c id 131 type mutual_exclusion
-3 -33 0
c id 132 type mutual_exclusion
-9 -15 0
c id 133 type mutual_exclusion
-9 -21 0
c id 134 type mutual_exclusion
-9 -27 0
c id 135 type mutual_exclusion
-9 -33 0
c id 136 type mutual_exclusion
-15 -21 0
c id 137 type mutual_exclusion
-15 -27 0
c id 138 type mutual_exclusion
-15 -33 0
c id 139 type mutual_exclusion
-21 -27 0
c id 140 type mutual_exclusion
-21 -33 0
c id 141 type mutual_exclusion
-27 -33 0
c id 142 type mutual_exclusion
-4 -10 0
c id 143 type mutual_exclusion
-4 -16 0
c id 144 type mutual_exclusion
-4 -22 0
c id 145 type mutual_exclusion
-4 -28 0
c id 146 type mutual_exclusion
-4 -34 0
c id 147 type mutual_exclusion
-10 -16 0
c id 148 type mutual_exclusion
-10 -22 0
c id 149 type mutual_exclusion
-10 -28 0
c id 150 type mutual_exclusion
-10 -34 0
c id 151 type mutual_exclusion
-16 -22 0
c id 152 type mutual_exclusion
-16 -28 0
c id 153 type mutual_exclusion
-16 -34 0
c id 154 type mutual_exclusion
-22 -28 0
c id 155 type mutual_exclusion
-22 -34 0
c id 156 type mutual_exclusion
-28 -34 0
c id 157 type mutual_exclusion
-5 -11 0
c id 158 type mutual_exclusion
-5 -17 0
c id 159 type mutual_exclusion
-5 -23 0
c id 160 type mutual_exclusion
-5 -29 0
c id 161 type mutual_exclusion
-5 -35 0
c id 162 type mutual_exclusion
-11 -17 0
c id 163 type mutual_exclusion
-11 -23 0
c id 164 type mutual_exclusion
-11 -29 0
c id 165 type mutual_exclusion
-11 -35 0
c id 166 type mutual_exclusion
-17 -23 0
c id 167 type mutual_exclusion
-17 -29 0
c id 168 type mutual_exclusion
-17 -35 0
c id 169 type mutual_exclusion
-23 -29 0
c id 170 type mutual_exclusion
-23 -35 0
c id 171 type mutual_exclusion
-29 -35 0
c id 172 type mutual_exclusion
-6 -12 0
c id 173 type mutual_exclusion
-6 -18 0
c id 174 type mutual_exclusion
-6 -24 0
c id 175 type mutual_exclusion
-6 -30 0
c id 176 type mutual_exclusion
-6 -36 0
c id 177 type mutual_exclusion
-12 -18 0
c id 178 type mutual_exclusion
-12 -24 0
c id 179 type mutual_exclusion
-12 -30 0
c id 180 type mutual_exclusion
-12 -36 0
c id 181 type mutual_exclusion
-18 -24 0
c id 182 type mutual_exclusion
-18 -30 0
c id 183 type mutual_exclusion
-18 -36 0
c id 184 type mutual_exclusion
-24 -30 0
c id 185 type mutual_exclusion
-24 -36 0
c id 186 type mutual_exclusion
-30 -36 0
c id 187 type edge_consistency
-1 -7 0
c id 188 type edge_consistency
-1 -9 0
c id 189 type edge_consistency
-1 -10 0
c id 190 type edge_consistency
-1 -11 0
c id 191 type edge_consistency
-1 -12 0
c id 192 type edge_consistency
-2 -8 0
c id 193 type edge_consistency
-2 -10 0
c id 194 type edge_consistency
-2 -11 0
c id 195 type edge_consistency
-2 -12 0
c id 196 type edge_consistency
-3 -7 0
c id 197 type edge_consistency
-3 -9 0
c id 198 type edge_consistency
-3 -11 0
c id 199 type edge_consistency
-3 -12 0
c id 200 type edge_consistency
-4 -7 0
c id 201 type edge_consistency
-4 -8 0
c id 202 type edge_consistency
-4 -10 0
c id 203 type edge_consistency
-4 -12 0
c id 204 type edge_consistency
-5 -7 0
c id 205 type edge_consistency
-5 -8 0
c id 206 type edge_consistency
-5 -9 0
c id 207 type edge_consistency
-5 -11 0
c id 208 type edge_consistency
-6 -7 0
c id 209 type edge_consistency
-6 -8 0
c id 210 type edge_consistency
-6 -9 0
c id 211 type edge_consistency
-6 -10 0
c id 212 type edge_consistency
-6 -12 0
c id 213 type edge_consistency
-1 -13 0
c id 214 type edge_consistency
-1 -15 0
c id 215 type edge_consistency
-1 -16 0
c id 216 type edge_consistency
-1 -17 0
c id 217 type edge_consistency
-1 -18 0
c id 218 type edge_consistency
-2 -14 0
c id 219 type edge_consistency
-2 -16 0
c id 220 type edge_consistency
-2 -17 0
c id 221 type edge_consistency
-2 -18 0
c id 222 type edge_consistency
-3 -13 0
c id 223 type edge_consistency
-3 -15 0
c id 224 type edge_consistency
-3 -17 0
c id 225 type edge_consistency
-3 -18 0
c id 226 type edge_consistency
-4 -13 0
c id 227 type edge_consistency
-4 -14 0
c id 228 type edge_consistency
-4 -16 0
c id 229 type edge_consistency
-4 -18 0
c id 230 type edge_consistency
-5 -13 0
c id 231 type edge_consistency
-5 -14 0
c id 232 type edge_consistency
-5 -15 0
c id 233 type edge_consistency
-5 -17 0
c id 234 type edge_consistency
-6 -13 0
c id 235 type edge_consistency
-6 -14 0
c id 236 type edge_consistency
-6 -15 0
c id 237 type edge_consistency
-6 -16 0
c id 238 type edge_consistency
-6 -18 0
c id 239 type edge_consistency
-1 -19 0
c id 240 type edge_consistency
-1 -21 0
c id 241 type edge_consistency
-1 -22 0
c id 242 type edge_consistency
-1 -23 0
c id 243 type edge_consistency
-1 -24 0
c id 244 type edge_consistency
-2 -20 0
c id 245 type edge_consistency
-2 -22 0
c id 246 type edge_consistency
-2 -23 0
c id 247 type edge_consistency
-2 -24 0
c id 248 type edge_consistency
-3 -19 0
c id 249 type edge_consistency
-3 -21 0
c id 250 type edge_consistency
-3 -23 0
c id 251 type edge_consistency
-3 -24 0
c id 252 type edge_consistency
-4 -19 0
c id 253 type edge_consistency
-4 -20 0
c id 254 type edge_consistency
-4 -22 0
c id 255 type edge_consistency
-4 -24 0
c id 256 type edge_consistency
-5 -19 0
c id 257 type edge_consistency
-5 -20 0
c id 258 type edge_consistency
-5 -21 0
c id 259 type edge_consistency
-5 -23 0
c id 260 type edge_consistency
-6 -19 0
c id 261 type edge_consistency
-6 -20 0
c id 262 type edge_consistency
-6 -21 0
c id 263 type edge_consistency
-6 -22 0
c id 264 type edge_consistency
-6 -24 0
c id 265 type edge_consistency
-1 -25 0
c id 266 type edge_consistency
-1 -27 0
c id 267 type edge_consistency
-1 -28 0
c id 268 type edge_consistency
-1 -29 0
c id 269 type edge_consistency
-1 -30 0
c id 270 type edge_consistency
-2 -26 0
c id 271 type edge_consistency
-2 -28 0
c id 272 type edge_consistency
-2 -29 0
c id 273 type edge_consistency
-2 -30 0
c id 274 type edge_consistency
-3 -25 0
c id 275 type edge_consistency
-3 -27 0
c id 276 type edge_consistency
-3 -29 0
c id 277 type edge_consistency
-3 -30 0
c id 278 type edge_consistency
-4 -25 0
c id 279 type edge_consistency
-4 -26 0
c id 280 type edge_consistency
-4 -28 0
c id 281 type edge_consistency
-4 -30 0
c id 282 type edge_consistency
-5 -25 0
c id 283 type edge_consistency
-5 -26 0
c id 284 type edge_consistency
-5 -27 0
c id 285 type edge_consistency
-5 -29 0
c id 286 type edge_consistency
-6 -25 0
c id 287 type edge_consistency
-6 -26 0
c id 288 type edge_consistency
-6 -27 0
c id 289 type edge_consistency
-6 -28 0
c id 290 type edge_consistency
-6 -30 0
c id 291 type edge_consistency
-1 -31 0
c id 292 type edge_consistency
-1 -33 0
c id 293 type edge_consistency
-1 -34 0
c id 294 type edge_consistency
-1 -35 0
c id 295 type edge_consistency
-1 -36 0
c id 296 type edge_consistency
-2 -32 0
c id 297 type edge_consistency
-2 -34 0
c id 298 type edge_consistency
-2 -35 0
c id 299 type edge_consistency
-2 -36 0
c id 300 type edge_consistency
-3 -31 0
c id 301 type edge_consistency
-3 -33 0
c id 302 type edge_consistency
-3 -35 0
c id 303 type edge_consistency
-3 -36 0
c id 304 type edge_consistency
-4 -31 0
c id 305 type edge_consistency
-4 -32 0
c id 306 type edge_consistency
-4 -34 0
c id 307 type edge_consistency
-4 -36 0
c id 308 type edge_consistency
-5 -31 0
c id 309 type edge_consistency
-5 -32 0
c id 310 type edge_consistency
-5 -33 0
c id 311 type edge_consistency
-5 -35 0
c id 312 type edge_consistency
-6 -31 0
c id 313 type edge_consistency
-6 -32 0
c id 314 type edge_consistency
-6 -33 0
c id 315 type edge_consistency
-6 -34 0
c id 316 type edge_consistency
-6 -36 0
c id 317 type edge_consistency
-7 -13 0
c id 318 type edge_consistency
-7 -15 0
c id 319 type edge_consistency
-7 -16 0
c id 320 type edge_consistency
-7 -17 0
c id 321 type edge_consistency
-7 -18 0
c id 322 type edge_consistency
-8 -14 0
c id 323 type edge_consistency
-8 -16 0
c id 324 type edge_consistency
-8 -17 0
c id 325 type edge_consistency
-8 -18 0
c id 326 type edge_consistency
-9 -13 0
c id 327 type edge_consistency
-9 -15 0
c id 328 type edge_consistency
-9 -17 0
c id 329 type edge_consistency
-9 -18 0
c id 330 type edge_consistency
-10 -13 0
c id 331 type edge_consistency
-10 -14 0
c id 332 type edge_consistency
-10 -16 0
c id 333 type edge_consistency
-10 -18 0
c id 334 type edge_consistency
-11 -13 0
c id 335 type edge_consistency
-11 -14 0
c id 336 type edge_consistency
-11 -15 0
c id 337 type edge_consistency
-11 -17 0
c id 338 type edge_consistency
-12 -13 0
c id 339 type edge_consistency
-12 -14 0
c id 340 type edge_consistency
-12 -15 0
c id 341 type edge_consistency
-12 -16 0
c id 342 type edge_consistency
-12 -18 0
c id 343 type edge_consistency
-7 -19 0
c id 344 type edge_consistency
-7 -21 0
c id 345 type edge_consistency
-7 -22 0
c id 346 type edge_consistency
-7 -23 0
c id 347 type edge_consistency
-7 -24 0
c id 348 type edge_consistency
-8 -20 0
c id 349 type edge_consistency
-8 -22 0
c id 350 type edge_consistency
-8 -23 0
c id 351 type edge_consistency
-8 -24 0
c id 352 type edge_consistency
-9 -19 0
c id 353 type edge_consistency
-9 -21 0
c id 354 type edge_consistency
-9 -23 0
c id 355 type edge_consistency
-9 -24 0
c id 356 type edge_consistency
-10 -19 0
c id 357 type edge_consistency
-10 -20 0
c id 358 type edge_consistency
-10 -22 0
c id 359 type edge_consistency
-10 -24 0
c id 360 type edge_consistency
-11 -19 0
c id 361 type edge_consistency
-11 -20 0
c id 362 type edge_consistency
-11 -21 0
c id 363 type edge_consistency
-11 -23 0
c id 364 type edge_consistency
-12 -19 0
c id 365 type edge_consistency
-12 -20 0
c id 366 type edge_consistency
-12 -21 0
c id 367 type edge_consistency
-12 -22 0
c id 368 type edge_consistency
-12 -24 0
c id 369 type edge_consistency
-7 -25 0
c id 370 type edge_consistency
-7 -27 0
c id 371 type edge_consistency
-7 -28 0
c id 372 type edge_consistency
-7 -29 0
c id 373 type edge_consistency
-7 -30 0
c id 374 type edge_consistency
-8 -26 0
c id 375 type edge_consistency
-8 -28 0
c id 376 type edge_consistency
-8 -29 0
c id 377 type edge_consistency
-8 -30 0
c id 378 type edge_consistency
-9 -25 0
c id 379 type edge_consistency
-9 -27 0
c id 380 type edge_consistency
-9 -29 0
c id 381 type edge_consistency
-9 -30 0
c id 382 type edge_consistency
-10 -25 0
c id 383 type edge_consistency
-10 -26 0
c id 384 type edge_consistency
-10 -28 0
c id 385 type edge_consistency
-10 -30 0
c id 386 type edge_consistency
-11 -25 0
c id 387 type edge_consistency
-11 -26 0
c id 388 type edge_consistency
-11 -27 0
c id 389 type edge_consistency
-11 -29 0
c id 390 type edge_consistency
-12 -25 0
c id 391 type edge_consistency
-12 -26 0
c id 392 type edge_consistency
-12 -27 0
c id 393 type edge_consistency
-12 -28 0
c id 394 type edge_consistency
-12 -30 0
c id 395 type edge_consistency
-7 -31 0
c id 396 type edge_consistency
-7 -33 0
c id 397 type edge_consistency
-7 -34 0
c id 398 type edge_consistency
-7 -35 0
c id 399 type edge_consistency
-7 -36 0
c id 400 type edge_consistency
-8 -32 0
c id 401 type edge_consistency
-8 -34 0
c id 402 type edge_consistency
-8 -35 0
c id 403 type edge_consistency
-8 -36 0
c id 404 type edge_consistency
-9 -31 0
c id 405 type edge_consistency
-9 -33 0
c id 406 type edge_consistency
-9 -35 0
c id 407 type edge_consistency
-9 -36 0
c id 408 type edge_consistency
-10 -31 0
c id 409 type edge_consistency
-10 -32 0
c id 410 type edge_consistency
-10 -34 0
c id 411 type edge_consistency
-10 -36 0
c id 412 type edge_consistency
-11 -31 0
c id 413 type edge_consistency
-11 -32 0
c id 414 type edge_consistency
-11 -33 0
c id 415 type edge_consistency
-11 -35 0
c id 416 type edge_consistency
-12 -31 0
c id 417 type edge_consistency
-12 -32 0
c id 418 type edge_consistency
-12 -33 0
c id 419 type edge_consistency
-12 -34 0
c id 420 type edge_consistency
-12 -36 0
c id 421 type edge_consistency
-13 -19 0
c id 422 type edge_consistency
-13 -21 0
c id 423 type edge_consistency
-13 -22 0
c id 424 type edge_consistency
-13 -23 0
c id 425 type edge_consistency
-13 -24 0
c id 426 type edge_consistency
-14 -20 0
c id 427 type edge_consistency
-14 -22 0
c id 428 type edge_consistency
-14 -23 0
c id 429 type edge_consistency
-14 -24 0
c id 430 type edge_consistency
-15 -19 0
c id 431 type edge_consistency
-15 -21 0
c id 432 type edge_consistency
-15 -23 0
c id 433 type edge_consistency
-15 -24 0
c id 434 type edge_consistency
-16 -19 0
c id 435 type edge_consistency
-16 -20 0
c id 436 type edge_consistency
-16 -22 0
c id 437 type edge_consistency
-16 -24 0
c id 438 type edge_consistency
-17 -19 0
c id 439 type edge_consistency
-17 -20 0
c id 440 type edge_consistency
-17 -21 0
c id 441 type edge_consistency
-17 -23 0
c id 442 type edge_consistency
-18 -19 0
c id 443 type edge_consistency
-18 -20 0
c id 444 type edge_consistency
-18 -21 0
c id 445 type edge_consistency
-18 -22 0
c id 446 type edge_consistency
-18 -24 0
c id 447 type edge_consistency
-13 -25 0
c id 448 type edge_consistency
-13 -27 0
c id 449 type edge_consistency
-13 -28 0
c id 450 type edge_consistency
-13 -29 0
c id 451 type edge_consistency
-13 -30 0
c id 452 type edge_consistency
-14 -26 0
c id 453 type edge_consistency
-14 -28 0
c id 454 type edge_consistency
-14 -29 0
c id 455 type edge_consistency
-14 -30 0
c id 456 type edge_consistency
-15 -25 0
c id 457 type edge_consistency
-15 -27 0
c id 458 type edge_consistency
-15 -29 0
c id 459 type edge_consistency
-15 -30 0
c id 460 type edge_consistency
-16 -25 0
c id 461 type edge_consistency
-16 -26 0
c id 462 type edge_consistency
-16 -28 0
c id 463 type edge_consistency
-16 -30 0
c id 464 type edge_consistency
-17 -25 0
c id 465 type edge_consistency
-17 -26 0
c id 466 type edge_consistency
-17 -27 0
c id 467 type edge_consistency
-17 -29 0
c id 468 type edge_consistency
-18 -25 0
c id 469 type edge_consistency
-18 -26 0
c id 470 type edge_consistency
-18 -27 0
c id 471 type edge_consistency
-18 -28 0
c id 472 type edge_consistency
-18 -30 0
c id 473 type edge_consistency
-13 -31 0
c id 474 type edge_consistency
-13 -33 0
c id 475 type edge_consistency
-13 -34 0
c id 476 type edge_consistency
-13 -35 0
c id 477 type edge_consistency
-13 -36 0
c id 478 type edge_consistency
-14 -32 0
c id 479 type edge_consistency
-14 -34 0
c id 480 type edge_consistency
-14 -35 0
c id 481 type edge_consistency
-14 -36 0
c id 482 type edge_consistency
-15 -31 0
c id 483 type edge_consistency
-15 -33 0
c id 484 type edge_consistency
-15 -35 0
c id 485 type edge_consistency
-15 -36 0
c id 486 type edge_consistency
-16 -31 0
c id 487 type edge_consistency
-16 -32 0
c id 488 type edge_consistency
-16 -34 0
c id 489 type edge_consistency
-16 -36 0
c id 490 type edge_consistency
-17 -31 0
c id 491 type edge_consistency
-17 -32 0
c id 492 type edge_consistency
-17 -33 0
c id 493 type edge_consistency
-17 -35 0
c id 494 type edge_consistency
-18 -31 0
c id 495 type edge_consistency
-18 -32 0
c id 496 type edge_consistency
-18 -33 0
c id 497 type edge_consistency
-18 -34 0
c id 498 type edge_consistency
-18 -36 0
c id 499 type edge_consistency
-19 -25 0
c id 500 type edge_consistency
-19 -27 0
c id 501 type edge_consistency
-19 -28 0
c id 502 type edge_consistency
-19 -29 0
c id 503 type edge_consistency
-19 -30 0
c id 504 type edge_consistency
-20 -26 0
c id 505 type edge_consistency
-20 -28 0
c id 506 type edge_consistency
-20 -29 0
c id 507 type edge_consistency
-20 -30 0
c id 508 type edge_consistency
-21 -25 0
c id 509 type edge_consistency
-21 -27 0
c id 510 type edge_consistency
-21 -29 0
c id 511 type edge_consistency
-21 -30 0
c id 512 type edge_consistency
-22 -25 0
c id 513 type edge_consistency
-22 -26 0
c id 514 type edge_consistency
-22 -28 0
c id 515 type edge_consistency
-22 -30 0
c id 516 type edge_consistency
-23 -25 0
c id 517 type edge_consistency
-23 -26 0
c id 518 type edge_consistency
-23 -27 0
c id 519 type edge_consistency
-23 -29 0
c id 520 type edge_consistency
-24 -25 0
c id 521 type edge_consistency
-24 -26 0
c id 522 type edge_consistency
-24 -27 0
c id 523 type edge_consistency
-24 -28 0
c id 524 type edge_consistency
-24 -30 0
c id 525 type edge_consistency
-19 -31 0
c id 526 type edge_consistency
-19 -33 0
c id 527 type edge_consistency
-19 -34 0
c id 528 type edge_consistency
-19 -35 0
c id 529 type edge_consistency
-19 -36 0
c id 530 type edge_consistency
-20 -32 0
c id 531 type edge_consistency
-20 -34 0
c id 532 type edge_consistency
-20 -35 0
c id 533 type edge_consistency
-20 -36 0
c id 534 type edge_consistency
-21 -31 0
c id 535 type edge_consistency
-21 -33 0
c id 536 type edge_consistency
-21 -35 0
c id 537 type edge_consistency
-21 -36 0
c id 538 type edge_consistency
-22 -31 0
c id 539 type edge_consistency
-22 -32 0
c id 540 type edge_consistency
-22 -34 0
c id 541 type edge_consistency
-22 -36 0
c id 542 type edge_consistency
-23 -31 0
c id 543 type edge_consistency
-23 -32 0
c id 544 type edge_consistency
-23 -33 0
c id 545 type edge_consistency
-23 -35 0
c id 546 type edge_consistency
-24 -31 0
c id 547 type edge_consistency
-24 -32 0
c id 548 type edge_consistency
-24 -33 0
c id 549 type edge_consistency
-24 -34 0
c id 550 type edge_consistency
-24 -36 0
c id 551 type edge_consistency
-25 -31 0
c id 552 type edge_consistency
-25 -33 0
c id 553 type edge_consistency
-25 -34 0
c id 554 type edge_consistency
-25 -35 0
c id 555 type edge_consistency
-25 -36 0
c id 556 type edge_consistency
-26 -32 0
c id 557 type edge_consistency
-26 -34 0
c id 558 type edge_consistency
-26 -35 0
c id 559 type edge_consistency
-26 -36 0
c id 560 type edge_consistency
-27 -31 0
c id 561 type edge_consistency
-27 -33 0
c id 562 type edge_consistency
-27 -35 0
c id 563 type edge_consistency
-27 -36 0
c id 564 type edge_consistency
-28 -31 0
c id 565 type edge_consistency
-28 -32 0
c id 566 type edge_consistency
-28 -34 0
c id 567 type edge_consistency
-28 -36 0
c id 568 type edge_consistency
-29 -31 0
c id 569 type edge_consistency
-29 -32 0
c id 570 type edge_consistency
-29 -33 0
c id 571 type edge_consistency
-29 -35 0
c id 572 type edge_consistency
-30 -31 0
c id 573 type edge_consistency
-30 -32 0
c id 574 type edge_consistency
-30 -33 0
c id 575 type edge_consistency
-30 -34 0
c id 576 type edge_consistency
-30 -36 0
